2
1000 6
68
129 1 1
133 1 2
134 1 1
135 1 1
136 1 2
139 1 2
141 1 1
142 1 1
145 1 3
146 1 1
150 1 1
152 1 1
154 1 1
156 1 3
160 1 2
162 1 1
163 1 2
164 1 1
167 1 3
169 1 1
172 1 1
173 1 2
176 1 3
178 1 3
179 1 1
182 1 2
183 1 1
184 1 1
186 1 1
188 1 1
202 1 1
190 1 1
193 1 1
194 1 3
196 1 1
199 1 3
73 1 1
74 1 1
75 1 1
204 1 1
77 1 2
207 1 1
79 1 1
80 1 1
209 1 1
82 1 1
83 1 1
84 1 1
85 1 1
87 1 2
90 1 3
205 1 1
94 1 2
95 1 3
96 1 1
97 1 1
104 1 1
106 1 1
108 1 1
112 1 2
113 1 2
117 1 1
119 1 1
120 1 1
122 1 1
123 1 1
126 1 1
127 1 3
